c nIsolatedPIs 0
c maxPI 32
p cnf 330 895
c gate 33 -9 -25 0
-9 -33 0
-25 -33 0
9 25 33 0
c gate 34 9 25 0
9 -34 0
25 -34 0
-9 -25 34 0
c gate 35 -33 -34 0
-33 -35 0
-34 -35 0
33 34 35 0
c gate 36 8 24 0
8 -36 0
24 -36 0
-8 -24 36 0
c gate 37 -7 -23 0
-7 -37 0
-23 -37 0
7 23 37 0
c gate 38 -6 -22 0
-6 -38 0
-22 -38 0
6 22 38 0
c gate 39 5 21 0
5 -39 0
21 -39 0
-5 -21 39 0
c gate 40 4 20 0
4 -40 0
20 -40 0
-4 -20 40 0
c gate 41 -4 -20 0
-4 -41 0
-20 -41 0
4 20 41 0
c gate 42 -40 -41 0
-40 -42 0
-41 -42 0
40 41 42 0
c gate 43 3 19 0
3 -43 0
19 -43 0
-3 -19 43 0
c gate 44 -2 18 0
-2 -44 0
18 -44 0
2 -18 44 0
c gate 45 2 -18 0
2 -45 0
-18 -45 0
-2 18 45 0
c gate 46 -44 -45 0
-44 -46 0
-45 -46 0
44 45 46 0
c gate 47 1 17 0
1 -47 0
17 -47 0
-1 -17 47 0
c gate 48 -46 47 0
-46 -48 0
47 -48 0
46 -47 48 0
c gate 49 2 18 0
2 -49 0
18 -49 0
-2 -18 49 0
c gate 50 -48 -49 0
-48 -50 0
-49 -50 0
48 49 50 0
c gate 51 18 -50 0
18 -51 0
-50 -51 0
-18 50 51 0
c gate 52 -43 -51 0
-43 -52 0
-51 -52 0
43 51 52 0
c gate 53 42 -52 0
42 -53 0
-52 -53 0
-42 52 53 0
c gate 54 -40 -53 0
-40 -54 0
-53 -54 0
40 53 54 0
c gate 55 -39 54 0
-39 -55 0
54 -55 0
39 -54 55 0
c gate 56 -38 -55 0
-38 -56 0
-55 -56 0
38 55 56 0
c gate 57 -37 56 0
-37 -57 0
56 -57 0
37 -56 57 0
c gate 58 -36 -57 0
-36 -58 0
-57 -58 0
36 57 58 0
c gate 59 35 -58 0
35 -59 0
-58 -59 0
-35 58 59 0
c gate 60 -35 58 0
-35 -60 0
58 -60 0
35 -58 60 0
c gate 61 -59 -60 0
-59 -61 0
-60 -61 0
59 60 61 0
c gate 62 -8 -24 0
-8 -62 0
-24 -62 0
8 24 62 0
c gate 63 7 23 0
7 -63 0
23 -63 0
-7 -23 63 0
c gate 64 6 22 0
6 -64 0
22 -64 0
-6 -22 64 0
c gate 65 6 -22 0
6 -65 0
-22 -65 0
-6 22 65 0
c gate 66 -6 22 0
-6 -66 0
22 -66 0
6 -22 66 0
c gate 67 -65 -66 0
-65 -67 0
-66 -67 0
65 66 67 0
c gate 68 -5 21 0
-5 -68 0
21 -68 0
5 -21 68 0
c gate 69 5 -21 0
5 -69 0
-21 -69 0
-5 21 69 0
c gate 70 -68 -69 0
-68 -70 0
-69 -70 0
68 69 70 0
c gate 71 -3 19 0
-3 -71 0
19 -71 0
3 -19 71 0
c gate 72 3 -19 0
3 -72 0
-19 -72 0
-3 19 72 0
c gate 73 -71 -72 0
-71 -73 0
-72 -73 0
71 72 73 0
c gate 74 -50 -73 0
-50 -74 0
-73 -74 0
50 73 74 0
c gate 75 -43 -74 0
-43 -75 0
-74 -75 0
43 74 75 0
c gate 76 42 75 0
42 -76 0
75 -76 0
-42 -75 76 0
c gate 77 -41 -76 0
-41 -77 0
-76 -77 0
41 76 77 0
c gate 78 -70 77 0
-70 -78 0
77 -78 0
70 -77 78 0
c gate 79 -39 -78 0
-39 -79 0
-78 -79 0
39 78 79 0
c gate 80 -67 -79 0
-67 -80 0
-79 -80 0
67 79 80 0
c gate 81 -64 -80 0
-64 -81 0
-80 -81 0
64 80 81 0
c gate 82 -37 -63 0
-37 -82 0
-63 -82 0
37 63 82 0
c gate 83 -81 82 0
-81 -83 0
82 -83 0
81 -82 83 0
c gate 84 -63 -83 0
-63 -84 0
-83 -84 0
63 83 84 0
c gate 85 -62 -84 0
-62 -85 0
-84 -85 0
62 84 85 0
c gate 86 -36 -85 0
-36 -86 0
-85 -86 0
36 85 86 0
c gate 87 35 86 0
35 -87 0
86 -87 0
-35 -86 87 0
c gate 88 -35 -86 0
-35 -88 0
-86 -88 0
35 86 88 0
c gate 89 -87 -88 0
-87 -89 0
-88 -89 0
87 88 89 0
c gate 90 61 89 0
61 -90 0
89 -90 0
-61 -89 90 0
c gate 91 -61 -89 0
-61 -91 0
-89 -91 0
61 89 91 0
c gate 92 -90 -91 0
-90 -92 0
-91 -92 0
90 91 92 0
c gate 93 58 85 0
58 -93 0
85 -93 0
-58 -85 93 0
c gate 94 81 -82 0
81 -94 0
-82 -94 0
-81 82 94 0
c gate 95 -83 -94 0
-83 -95 0
-94 -95 0
83 94 95 0
c gate 96 56 -82 0
56 -96 0
-82 -96 0
-56 82 96 0
c gate 97 -56 82 0
-56 -97 0
82 -97 0
56 -82 97 0
c gate 98 -96 -97 0
-96 -98 0
-97 -98 0
96 97 98 0
c gate 99 -95 -98 0
-95 -99 0
-98 -99 0
95 98 99 0
c gate 100 95 98 0
95 -100 0
98 -100 0
-95 -98 100 0
c gate 101 67 79 0
67 -101 0
79 -101 0
-67 -79 101 0
c gate 102 -80 -101 0
-80 -102 0
-101 -102 0
80 101 102 0
c gate 103 55 67 0
55 -103 0
67 -103 0
-55 -67 103 0
c gate 104 -55 -67 0
-55 -104 0
-67 -104 0
55 67 104 0
c gate 105 -103 -104 0
-103 -105 0
-104 -105 0
103 104 105 0
c gate 106 -102 105 0
-102 -106 0
105 -106 0
102 -105 106 0
c gate 107 70 -77 0
70 -107 0
-77 -107 0
-70 77 107 0
c gate 108 -78 -107 0
-78 -108 0
-107 -108 0
78 107 108 0
c gate 109 54 70 0
54 -109 0
70 -109 0
-54 -70 109 0
c gate 110 -54 -70 0
-54 -110 0
-70 -110 0
54 70 110 0
c gate 111 -109 -110 0
-109 -111 0
-110 -111 0
109 110 111 0
c gate 112 108 -111 0
108 -112 0
-111 -112 0
-108 111 112 0
c gate 113 102 -105 0
102 -113 0
-105 -113 0
-102 105 113 0
c gate 114 -106 -113 0
-106 -114 0
-113 -114 0
106 113 114 0
c gate 115 -112 114 0
-112 -115 0
114 -115 0
112 -114 115 0
c gate 116 -106 -115 0
-106 -116 0
-115 -116 0
106 115 116 0
c gate 117 -100 -116 0
-100 -117 0
-116 -117 0
100 116 117 0
c gate 118 18 -73 0
18 -118 0
-73 -118 0
-18 73 118 0
c gate 119 -50 -118 0
-50 -119 0
-118 -119 0
50 118 119 0
c gate 120 -108 111 0
-108 -120 0
111 -120 0
108 -111 120 0
c gate 121 -42 -75 0
-42 -121 0
-75 -121 0
42 75 121 0
c gate 122 -76 -121 0
-76 -122 0
-121 -122 0
76 121 122 0
c gate 123 -42 52 0
-42 -123 0
52 -123 0
42 -52 123 0
c gate 124 -53 -123 0
-53 -124 0
-123 -124 0
53 123 124 0
c gate 125 122 124 0
122 -125 0
124 -125 0
-122 -124 125 0
c gate 126 -2 74 0
-2 -126 0
74 -126 0
2 -74 126 0
c gate 127 -125 -126 0
-125 -127 0
-126 -127 0
125 126 127 0
c gate 128 -112 -127 0
-112 -128 0
-127 -128 0
112 127 128 0
c gate 129 -120 -128 0
-120 -129 0
-128 -129 0
120 128 129 0
c gate 130 115 129 0
115 -130 0
129 -130 0
-115 -129 130 0
c gate 131 119 130 0
119 -131 0
130 -131 0
-119 -130 131 0
c gate 132 117 -131 0
117 -132 0
-131 -132 0
-117 131 132 0
c gate 133 -99 -132 0
-99 -133 0
-132 -133 0
99 132 133 0
c gate 134 -93 133 0
-93 -134 0
133 -134 0
93 -133 134 0
c gate 135 -36 -62 0
-36 -135 0
-62 -135 0
36 62 135 0
c gate 136 57 135 0
57 -136 0
135 -136 0
-57 -135 136 0
c gate 137 84 -136 0
84 -137 0
-136 -137 0
-84 136 137 0
c gate 138 -84 135 0
-84 -138 0
135 -138 0
84 -135 138 0
c gate 139 -137 -138 0
-137 -139 0
-138 -139 0
137 138 139 0
c gate 140 -134 -139 0
-134 -140 0
-139 -140 0
134 139 140 0
c gate 141 -12 28 0
-12 -141 0
28 -141 0
12 -28 141 0
c gate 142 12 -28 0
12 -142 0
-28 -142 0
-12 28 142 0
c gate 143 -11 27 0
-11 -143 0
27 -143 0
11 -27 143 0
c gate 144 11 -27 0
11 -144 0
-27 -144 0
-11 27 144 0
c gate 145 -10 26 0
-10 -145 0
26 -145 0
10 -26 145 0
c gate 146 10 -26 0
10 -146 0
-26 -146 0
-10 26 146 0
c gate 147 -9 25 0
-9 -147 0
25 -147 0
9 -25 147 0
c gate 148 8 -24 0
8 -148 0
-24 -148 0
-8 24 148 0
c gate 149 9 -25 0
9 -149 0
-25 -149 0
-9 25 149 0
c gate 150 -148 -149 0
-148 -150 0
-149 -150 0
148 149 150 0
c gate 151 7 -23 0
7 -151 0
-23 -151 0
-7 23 151 0
c gate 152 -4 20 0
-4 -152 0
20 -152 0
4 -20 152 0
c gate 153 -1 17 0
-1 -153 0
17 -153 0
1 -17 153 0
c gate 154 -44 -153 0
-44 -154 0
-153 -154 0
44 153 154 0
c gate 155 -45 -72 0
-45 -155 0
-72 -155 0
45 72 155 0
c gate 156 -154 155 0
-154 -156 0
155 -156 0
154 -155 156 0
c gate 157 -71 -156 0
-71 -157 0
-156 -157 0
71 156 157 0
c gate 158 -152 157 0
-152 -158 0
157 -158 0
152 -157 158 0
c gate 159 4 -20 0
4 -159 0
-20 -159 0
-4 20 159 0
c gate 160 -69 -159 0
-69 -160 0
-159 -160 0
69 159 160 0
c gate 161 -158 160 0
-158 -161 0
160 -161 0
158 -160 161 0
c gate 162 -68 -161 0
-68 -162 0
-161 -162 0
68 161 162 0
c gate 163 -65 -162 0
-65 -163 0
-162 -163 0
65 162 163 0
c gate 164 -66 -163 0
-66 -164 0
-163 -164 0
66 163 164 0
c gate 165 -151 -164 0
-151 -165 0
-164 -165 0
151 164 165 0
c gate 166 -7 23 0
-7 -166 0
23 -166 0
7 -23 166 0
c gate 167 -8 24 0
-8 -167 0
24 -167 0
8 -24 167 0
c gate 168 -166 -167 0
-166 -168 0
-167 -168 0
166 167 168 0
c gate 169 -165 168 0
-165 -169 0
168 -169 0
165 -168 169 0
c gate 170 150 -169 0
150 -170 0
-169 -170 0
-150 169 170 0
c gate 171 -147 -170 0
-147 -171 0
-170 -171 0
147 170 171 0
c gate 172 -146 -171 0
-146 -172 0
-171 -172 0
146 171 172 0
c gate 173 -145 -172 0
-145 -173 0
-172 -173 0
145 172 173 0
c gate 174 -144 -173 0
-144 -174 0
-173 -174 0
144 173 174 0
c gate 175 -143 -174 0
-143 -175 0
-174 -175 0
143 174 175 0
c gate 176 -142 -175 0
-142 -176 0
-175 -176 0
142 175 176 0
c gate 177 -141 -176 0
-141 -177 0
-176 -177 0
141 176 177 0
c gate 178 13 29 0
13 -178 0
29 -178 0
-13 -29 178 0
c gate 179 -13 -29 0
-13 -179 0
-29 -179 0
13 29 179 0
c gate 180 -178 -179 0
-178 -180 0
-179 -180 0
178 179 180 0
c gate 181 177 -180 0
177 -181 0
-180 -181 0
-177 180 181 0
c gate 182 -177 180 0
-177 -182 0
180 -182 0
177 -180 182 0
c gate 183 -181 -182 0
-181 -183 0
-182 -183 0
181 182 183 0
c gate 184 -157 159 0
-157 -184 0
159 -184 0
157 -159 184 0
c gate 185 67 70 0
67 -185 0
70 -185 0
-67 -70 185 0
c gate 186 184 185 0
184 -186 0
185 -186 0
-184 -185 186 0
c gate 187 -151 186 0
-151 -187 0
186 -187 0
151 -186 187 0
c gate 188 169 -187 0
169 -188 0
-187 -188 0
-169 187 188 0
c gate 189 150 -188 0
150 -189 0
-188 -189 0
-150 188 189 0
c gate 190 -147 -189 0
-147 -190 0
-189 -190 0
147 189 190 0
c gate 191 -146 -190 0
-146 -191 0
-190 -191 0
146 190 191 0
c gate 192 -145 -191 0
-145 -192 0
-191 -192 0
145 191 192 0
c gate 193 -141 -143 0
-141 -193 0
-143 -193 0
141 143 193 0
c gate 194 192 193 0
192 -194 0
193 -194 0
-192 -193 194 0
c gate 195 -142 -194 0
-142 -195 0
-194 -195 0
142 194 195 0
c gate 196 -180 195 0
-180 -196 0
195 -196 0
180 -195 196 0
c gate 197 180 -195 0
180 -197 0
-195 -197 0
-180 195 197 0
c gate 198 -196 -197 0
-196 -198 0
-197 -198 0
196 197 198 0
c gate 199 183 198 0
183 -199 0
198 -199 0
-183 -198 199 0
c gate 200 -141 -142 0
-141 -200 0
-142 -200 0
141 142 200 0
c gate 201 -192 -200 0
-192 -201 0
-200 -201 0
192 200 201 0
c gate 202 175 201 0
175 -202 0
201 -202 0
-175 -201 202 0
c gate 203 -199 -202 0
-199 -203 0
-202 -203 0
199 202 203 0
c gate 204 -183 -198 0
-183 -204 0
-198 -204 0
183 198 204 0
c gate 205 203 -204 0
203 -205 0
-204 -205 0
-203 204 205 0
c gate 206 14 30 0
14 -206 0
30 -206 0
-14 -30 206 0
c gate 207 -12 -28 0
-12 -207 0
-28 -207 0
12 28 207 0
c gate 208 11 27 0
11 -208 0
27 -208 0
-11 -27 208 0
c gate 209 -143 -144 0
-143 -209 0
-144 -209 0
143 144 209 0
c gate 210 -33 -87 0
-33 -210 0
-87 -210 0
33 87 210 0
c gate 211 10 210 0
10 -211 0
210 -211 0
-10 -210 211 0
c gate 212 -145 -146 0
-145 -212 0
-146 -212 0
145 146 212 0
c gate 213 -210 -212 0
-210 -213 0
-212 -213 0
210 212 213 0
c gate 214 26 -213 0
26 -214 0
-213 -214 0
-26 213 214 0
c gate 215 -211 -214 0
-211 -215 0
-214 -215 0
211 214 215 0
c gate 216 -209 -215 0
-209 -216 0
-215 -216 0
209 215 216 0
c gate 217 -208 -216 0
-208 -217 0
-216 -217 0
208 216 217 0
c gate 218 -207 -217 0
-207 -218 0
-217 -218 0
207 217 218 0
c gate 219 12 28 0
12 -219 0
28 -219 0
-12 -28 219 0
c gate 220 -178 -219 0
-178 -220 0
-219 -220 0
178 219 220 0
c gate 221 -218 220 0
-218 -221 0
220 -221 0
218 -220 221 0
c gate 222 -14 -30 0
-14 -222 0
-30 -222 0
14 30 222 0
c gate 223 -179 -222 0
-179 -223 0
-222 -223 0
179 222 223 0
c gate 224 -221 223 0
-221 -224 0
223 -224 0
221 -223 224 0
c gate 225 -206 -224 0
-206 -225 0
-224 -225 0
206 224 225 0
c gate 226 -16 -32 0
-16 -226 0
-32 -226 0
16 32 226 0
c gate 227 16 32 0
16 -227 0
32 -227 0
-16 -32 227 0
c gate 228 -226 -227 0
-226 -228 0
-227 -228 0
226 227 228 0
c gate 229 15 31 0
15 -229 0
31 -229 0
-15 -31 229 0
c gate 230 -34 -59 0
-34 -230 0
-59 -230 0
34 59 230 0
c gate 231 10 -230 0
10 -231 0
-230 -231 0
-10 230 231 0
c gate 232 -212 230 0
-212 -232 0
230 -232 0
212 -230 232 0
c gate 233 26 -232 0
26 -233 0
-232 -233 0
-26 232 233 0
c gate 234 -231 -233 0
-231 -234 0
-233 -234 0
231 233 234 0
c gate 235 -209 -234 0
-209 -235 0
-234 -235 0
209 234 235 0
c gate 236 -208 -235 0
-208 -236 0
-235 -236 0
208 235 236 0
c gate 237 -200 -236 0
-200 -237 0
-236 -237 0
200 236 237 0
c gate 238 -219 -237 0
-219 -238 0
-237 -238 0
219 237 238 0
c gate 239 -179 -238 0
-179 -239 0
-238 -239 0
179 238 239 0
c gate 240 -178 -206 0
-178 -240 0
-206 -240 0
178 206 240 0
c gate 241 -239 240 0
-239 -241 0
240 -241 0
239 -240 241 0
c gate 242 -15 -31 0
-15 -242 0
-31 -242 0
15 31 242 0
c gate 243 -222 -242 0
-222 -243 0
-242 -243 0
222 242 243 0
c gate 244 -241 243 0
-241 -244 0
243 -244 0
241 -243 244 0
c gate 245 -229 -244 0
-229 -245 0
-244 -245 0
229 244 245 0
c gate 246 228 245 0
228 -246 0
245 -246 0
-228 -245 246 0
c gate 247 -228 -245 0
-228 -247 0
-245 -247 0
228 245 247 0
c gate 248 -246 -247 0
-246 -248 0
-247 -248 0
246 247 248 0
c gate 249 -229 -242 0
-229 -249 0
-242 -249 0
229 242 249 0
c gate 250 -225 249 0
-225 -250 0
249 -250 0
225 -249 250 0
c gate 251 -229 -250 0
-229 -251 0
-250 -251 0
229 250 251 0
c gate 252 -228 251 0
-228 -252 0
251 -252 0
228 -251 252 0
c gate 253 228 -251 0
228 -253 0
-251 -253 0
-228 251 253 0
c gate 254 -252 -253 0
-252 -254 0
-253 -254 0
252 253 254 0
c gate 255 248 254 0
248 -255 0
254 -255 0
-248 -254 255 0
c gate 256 225 255 0
225 -256 0
255 -256 0
-225 -255 256 0
c gate 257 -184 -256 0
-184 -257 0
-256 -257 0
184 256 257 0
c gate 258 246 250 0
246 -258 0
250 -258 0
-246 -250 258 0
c gate 259 257 -258 0
257 -259 0
-258 -259 0
-257 258 259 0
c gate 260 92 140 0
92 -260 0
140 -260 0
-92 -140 260 0
c gate 261 209 234 0
209 -261 0
234 -261 0
-209 -234 261 0
c gate 262 -235 -261 0
-235 -262 0
-261 -262 0
235 261 262 0
c gate 263 209 215 0
209 -263 0
215 -263 0
-209 -215 263 0
c gate 264 -216 -263 0
-216 -264 0
-263 -264 0
216 263 264 0
c gate 265 262 -264 0
262 -265 0
-264 -265 0
-262 264 265 0
c gate 266 -262 264 0
-262 -266 0
264 -266 0
262 -264 266 0
c gate 267 -265 -266 0
-265 -267 0
-266 -267 0
265 266 267 0
c gate 268 -209 -267 0
-209 -268 0
-267 -268 0
209 267 268 0
c gate 269 200 236 0
200 -269 0
236 -269 0
-200 -236 269 0
c gate 270 -237 -269 0
-237 -270 0
-269 -270 0
237 269 270 0
c gate 271 268 -270 0
268 -271 0
-270 -271 0
-268 270 271 0
c gate 272 210 212 0
210 -272 0
212 -272 0
-210 -212 272 0
c gate 273 -213 -272 0
-213 -273 0
-272 -273 0
213 272 273 0
c gate 274 91 -273 0
91 -274 0
-273 -274 0
-91 273 274 0
c gate 275 -91 273 0
-91 -275 0
273 -275 0
91 -273 275 0
c gate 276 212 -230 0
212 -276 0
-230 -276 0
-212 230 276 0
c gate 277 -232 -276 0
-232 -277 0
-276 -277 0
232 276 277 0
c gate 278 -275 277 0
-275 -278 0
277 -278 0
275 -277 278 0
c gate 279 -274 -278 0
-274 -279 0
-278 -279 0
274 278 279 0
c gate 280 -266 279 0
-266 -280 0
279 -280 0
266 -279 280 0
c gate 281 -265 -280 0
-265 -281 0
-280 -281 0
265 280 281 0
c gate 282 -268 281 0
-268 -282 0
281 -282 0
268 -281 282 0
c gate 283 -271 -282 0
-271 -283 0
-282 -283 0
271 282 283 0
c gate 284 -92 283 0
-92 -284 0
283 -284 0
92 -283 284 0
c gate 285 -200 268 0
-200 -285 0
268 -285 0
200 -268 285 0
c gate 286 -284 -285 0
-284 -286 0
-285 -286 0
284 285 286 0
c gate 287 -248 -254 0
-248 -287 0
-254 -287 0
248 254 287 0
c gate 288 225 -249 0
225 -288 0
-249 -288 0
-225 249 288 0
c gate 289 -206 -222 0
-206 -289 0
-222 -289 0
206 222 289 0
c gate 290 -250 289 0
-250 -290 0
289 -290 0
250 -289 290 0
c gate 291 -288 290 0
-288 -291 0
290 -291 0
288 -290 291 0
c gate 292 238 -289 0
238 -292 0
-289 -292 0
-238 289 292 0
c gate 293 180 -292 0
180 -293 0
-292 -293 0
-180 292 293 0
c gate 294 -291 293 0
-291 -294 0
293 -294 0
291 -293 294 0
c gate 295 -180 -234 0
-180 -295 0
-234 -295 0
180 234 295 0
c gate 296 285 -295 0
285 -296 0
-295 -296 0
-285 295 296 0
c gate 297 -294 296 0
-294 -297 0
296 -297 0
294 -296 297 0
c gate 298 -255 -297 0
-255 -298 0
-297 -298 0
255 297 298 0
c gate 299 -287 -298 0
-287 -299 0
-298 -299 0
287 298 299 0
c gate 300 -286 -299 0
-286 -300 0
-299 -300 0
286 299 300 0
c gate 301 -260 -300 0
-260 -301 0
-300 -301 0
260 300 301 0
c gate 302 259 301 0
259 -302 0
301 -302 0
-259 -301 302 0
c gate 303 -186 -257 0
-186 -303 0
-257 -303 0
186 257 303 0
c gate 304 173 -209 0
173 -304 0
-209 -304 0
-173 209 304 0
c gate 305 -192 304 0
-192 -305 0
304 -305 0
192 -304 305 0
c gate 306 -35 212 0
-35 -306 0
212 -306 0
35 -212 306 0
c gate 307 -135 306 0
-135 -307 0
306 -307 0
135 -306 307 0
c gate 308 164 -307 0
164 -308 0
-307 -308 0
-164 307 308 0
c gate 309 -82 -308 0
-82 -309 0
-308 -309 0
82 308 309 0
c gate 310 186 -309 0
186 -310 0
-309 -310 0
-186 309 310 0
c gate 311 -305 -310 0
-305 -311 0
-310 -311 0
305 310 311 0
c gate 312 -303 311 0
-303 -312 0
311 -312 0
303 -311 312 0
c gate 313 -302 312 0
-302 -313 0
312 -313 0
302 -312 313 0
c gate 314 205 -313 0
205 -314 0
-313 -314 0
-205 313 314 0
c gate 315 177 196 0
177 -315 0
196 -315 0
-177 -196 315 0
c gate 316 -228 -249 0
-228 -316 0
-249 -316 0
228 249 316 0
c gate 317 -289 316 0
-289 -317 0
316 -317 0
289 -316 317 0
c gate 318 315 -317 0
315 -318 0
-317 -318 0
-315 317 318 0
c gate 319 203 -318 0
203 -319 0
-318 -319 0
-203 318 319 0
c gate 320 -314 319 0
-314 -320 0
319 -320 0
314 -319 320 0
c gate 321 -140 320 0
-140 -321 0
320 -321 0
140 -320 321 0
c gate 322 117 -130 0
117 -322 0
-130 -322 0
-117 130 322 0
c gate 323 -99 -322 0
-99 -323 0
-322 -323 0
99 322 323 0
c gate 324 -93 323 0
-93 -324 0
323 -324 0
93 -323 324 0
c gate 325 -139 -324 0
-139 -325 0
-324 -325 0
139 324 325 0
c gate 326 -320 325 0
-320 -326 0
325 -326 0
320 -325 326 0
c gate 327 -321 -326 0
-321 -327 0
-326 -327 0
321 326 327 0
c gate 328 92 -327 0
92 -328 0
-327 -328 0
-92 327 328 0
c gate 329 -92 327 0
-92 -329 0
327 -329 0
92 -327 329 0
c gate 330 -328 -329 0
-328 -330 0
-329 -330 0
328 329 330 0
c PO
-330 0
